<?xml version = "1.0" standalone="yes"?>
<!-- This file has been generated by DOcplex version 2.23.222  -->
<CPLEXSolution version="1.0">
 <header
   problemName="CVRP"
   objectiveValue="10326.4"
  />
 <variables>
  <variable name="x_0_1" index="0" value="1.00000"/>
  <variable name="x_0_2" index="1" value="1.00000"/>
  <variable name="x_0_3" index="2" value="1.00000"/>
  <variable name="x_0_10" index="9" value="1.00000"/>
  <variable name="x_0_11" index="10" value="1.00000"/>
  <variable name="x_0_12" index="11" value="1.00000"/>
  <variable name="x_0_15" index="14" value="1.00000"/>
  <variable name="x_1_6" index="20" value="1.00000"/>
  <variable name="x_2_13" index="42" value="1.00000"/>
  <variable name="x_3_0" index="45" value="1.00000"/>
  <variable name="x_4_14" index="73" value="1.00000"/>
  <variable name="x_5_0" index="75" value="1.00000"/>
  <variable name="x_6_7" index="96" value="1.00000"/>
  <variable name="x_7_8" index="112" value="1.00000"/>
  <variable name="x_8_9" index="128" value="1.00000"/>
  <variable name="x_9_0" index="135" value="1.00000"/>
  <variable name="x_10_5" index="155" value="1.00000"/>
  <variable name="x_11_0" index="165" value="1.00000"/>
  <variable name="x_12_0" index="180" value="1.00000"/>
  <variable name="x_13_4" index="199" value="1.00000"/>
  <variable name="x_14_0" index="210" value="1.00000"/>
  <variable name="x_15_0" index="225" value="1.00000"/>
  <variable name="u_1" index="240" value="8.00000"/>
  <variable name="u_2" index="241" value="8.00000"/>
  <variable name="u_3" index="242" value="48.00000"/>
  <variable name="u_4" index="243" value="29.00000"/>
  <variable name="u_5" index="244" value="48.00000"/>
  <variable name="u_6" index="245" value="11.00000"/>
  <variable name="u_7" index="246" value="32.00000"/>
  <variable name="u_8" index="247" value="34.00000"/>
  <variable name="u_9" index="248" value="48.00000"/>
  <variable name="u_10" index="249" value="6.00000"/>
  <variable name="u_11" index="250" value="48.00000"/>
  <variable name="u_12" index="251" value="48.00000"/>
  <variable name="u_13" index="252" value="18.00000"/>
  <variable name="u_14" index="253" value="43.00000"/>
  <variable name="u_15" index="254" value="46.00000"/>
 </variables>
</CPLEXSolution>
